70
2 0 1
2 1 1
3 0 1
3 1 1
4 0 1
4 1 1
5 0 1
6 5 1
7 0 1
7 1 1
7 4 1
7 6 1
8 0 1
8 2 1
8 6 1
8 7 1
9 0 1
9 2 1
9 3 1
9 4 1
9 5 1
9 6 1
9 7 1
10 3 1
10 7 1
10 8 1
10 9 1
11 1 1
11 3 1
11 5 1
11 7 1
11 9 1
11 10 1
12 2 1
12 4 1
12 5 1
12 10 1
13 2 1
13 3 1
13 6 1
13 7 1
13 8 1
13 10 1
13 11 1
13 12 1
14 0 1
14 2 1
14 5 1
14 6 1
14 8 1
14 13 1
15 1 1
15 2 1
15 3 1
15 5 1
15 6 1
15 8 1
15 9 1
15 11 1
15 12 1
15 13 1
16 0 1
16 1 1
16 6 1
16 8 1
16 10 1
16 11 1
16 13 1
16 14 1
16 15 1
17 0 1
17 1 1
17 3 1
17 5 1
17 7 1
17 9 1
17 10 1
17 11 1
17 12 1
17 13 1
17 15 1
18 0 1
18 1 1
18 2 1
18 8 1
18 11 1
18 13 1
18 14 1
18 15 1
18 17 1
19 1 1
19 7 1
19 8 1
19 10 1
19 12 1
19 13 1
19 14 1
19 15 1
19 16 1
20 0 1
20 4 1
20 5 1
20 6 1
20 7 1
20 8 1
20 9 1
20 10 1
20 11 1
20 12 1
20 14 1
20 15 1
20 17 1
20 19 1
21 3 1
21 4 1
21 5 1
21 8 1
21 9 1
21 10 1
21 13 1
21 15 1
21 17 1
22 3 1
22 5 1
22 7 1
22 8 1
22 9 1
22 10 1
22 12 1
22 14 1
22 16 1
22 19 1
23 1 1
23 2 1
23 3 1
23 8 1
23 9 1
23 10 1
23 11 1
23 13 1
23 14 1
23 17 1
23 20 1
23 22 1
24 2 1
24 3 1
24 6 1
24 7 1
24 10 1
24 13 1
24 14 1
24 16 1
24 17 1
24 18 1
24 19 1
24 22 1
25 1 1
25 3 1
25 4 1
25 5 1
25 9 1
25 10 1
25 13 1
25 19 1
25 20 1
26 2 1
26 3 1
26 5 1
26 6 1
26 16 1
26 21 1
26 23 1
26 24 1
27 0 1
27 2 1
27 5 1
27 7 1
27 9 1
27 10 1
27 12 1
27 13 1
27 15 1
27 16 1
27 17 1
27 21 1
28 3 1
28 4 1
28 5 1
28 6 1
28 7 1
28 8 1
28 10 1
28 12 1
28 16 1
28 17 1
28 19 1
28 21 1
28 22 1
28 26 1
29 1 1
29 2 1
29 3 1
29 4 1
29 5 1
29 9 1
29 11 1
29 12 1
29 16 1
29 20 1
29 21 1
29 25 1
29 27 1
29 28 1
30 0 1
30 2 1
30 4 1
30 6 1
30 8 1
30 9 1
30 10 1
30 11 1
30 12 1
30 13 1
30 14 1
30 17 1
30 18 1
30 20 1
30 24 1
30 25 1
31 0 1
31 1 1
31 3 1
31 6 1
31 8 1
31 11 1
31 12 1
31 16 1
31 18 1
31 22 1
31 24 1
31 25 1
31 26 1
31 30 1
32 4 1
32 8 1
32 9 1
32 11 1
32 12 1
32 14 1
32 15 1
32 21 1
32 22 1
32 25 1
32 26 1
32 27 1
32 31 1
33 2 1
33 5 1
33 6 1
33 8 1
33 9 1
33 16 1
33 18 1
33 19 1
33 20 1
33 22 1
33 23 1
33 25 1
33 27 1
33 28 1
33 30 1
33 31 1
34 2 1
34 3 1
34 4 1
34 5 1
34 11 1
34 14 1
34 15 1
34 16 1
34 18 1
34 19 1
34 20 1
34 21 1
34 23 1
34 24 1
34 25 1
34 27 1
34 29 1
34 30 1
34 31 1
34 32 1
34 33 1
35 0 1
35 1 1
35 6 1
35 7 1
35 8 1
35 12 1
35 13 1
35 14 1
35 16 1
35 21 1
35 23 1
35 27 1
35 28 1
35 29 1
35 32 1
35 33 1
35 34 1
36 2 1
36 3 1
36 5 1
36 6 1
36 9 1
36 11 1
36 13 1
36 14 1
36 17 1
36 18 1
36 20 1
36 22 1
36 25 1
36 26 1
36 27 1
36 29 1
36 30 1
36 31 1
36 32 1
36 35 1
37 1 1
37 2 1
37 5 1
37 6 1
37 7 1
37 9 1
37 11 1
37 12 1
37 15 1
37 17 1
37 20 1
37 21 1
37 22 1
37 25 1
37 26 1
37 30 1
37 31 1
37 35 1
37 36 1
38 3 1
38 5 1
38 8 1
38 10 1
38 12 1
38 13 1
38 15 1
38 17 1
38 19 1
38 20 1
38 21 1
38 22 1
38 25 1
38 26 1
38 29 1
38 30 1
38 31 1
38 35 1
38 36 1
38 37 1
39 6 1
39 7 1
39 8 1
39 9 1
39 10 1
39 12 1
39 13 1
39 14 1
39 17 1
39 18 1
39 19 1
39 20 1
39 23 1
39 26 1
39 27 1
39 29 1
39 30 1
39 33 1
39 34 1
39 38 1
40 3 1
40 6 1
40 7 1
40 8 1
40 9 1
40 10 1
40 12 1
40 13 1
40 15 1
40 16 1
40 17 1
40 18 1
40 19 1
40 20 1
40 22 1
40 23 1
40 24 1
40 28 1
40 31 1
40 36 1
40 39 1
41 0 1
41 3 1
41 4 1
41 6 1
41 8 1
41 9 1
41 12 1
41 13 1
41 14 1
41 23 1
41 24 1
41 25 1
41 26 1
41 27 1
41 29 1
41 30 1
41 31 1
41 34 1
41 38 1
41 40 1
42 1 1
42 2 1
42 4 1
42 6 1
42 7 1
42 9 1
42 11 1
42 12 1
42 13 1
42 14 1
42 16 1
42 18 1
42 20 1
42 21 1
42 22 1
42 24 1
42 25 1
42 28 1
42 30 1
42 31 1
42 33 1
42 35 1
42 38 1
42 40 1
42 41 1
43 2 1
43 3 1
43 5 1
43 9 1
43 10 1
43 13 1
43 15 1
43 17 1
43 19 1
43 20 1
43 21 1
43 23 1
43 25 1
43 26 1
43 32 1
43 33 1
43 34 1
43 36 1
43 37 1
43 38 1
43 39 1
43 40 1
43 42 1
44 0 1
44 1 1
44 4 1
44 11 1
44 12 1
44 13 1
44 19 1
44 21 1
44 22 1
44 23 1
44 25 1
44 28 1
44 29 1
44 31 1
44 32 1
44 33 1
44 34 1
44 37 1
44 39 1
45 2 1
45 6 1
45 7 1
45 9 1
45 11 1
45 15 1
45 16 1
45 17 1
45 20 1
45 21 1
45 22 1
45 23 1
45 24 1
45 25 1
45 28 1
45 29 1
45 30 1
45 38 1
45 39 1
45 41 1
45 44 1
46 0 1
46 1 1
46 3 1
46 4 1
46 8 1
46 9 1
46 11 1
46 13 1
46 14 1
46 18 1
46 19 1
46 20 1
46 23 1
46 24 1
46 25 1
46 27 1
46 29 1
46 30 1
46 32 1
46 34 1
46 38 1
46 41 1
46 42 1
46 43 1
46 44 1
46 45 1
47 1 1
47 2 1
47 5 1
47 7 1
47 9 1
47 14 1
47 15 1
47 17 1
47 19 1
47 20 1
47 21 1
47 23 1
47 24 1
47 26 1
47 28 1
47 31 1
47 37 1
47 43 1
47 45 1
48 0 1
48 3 1
48 7 1
48 9 1
48 10 1
48 11 1
48 12 1
48 14 1
48 15 1
48 19 1
48 20 1
48 22 1
48 23 1
48 24 1
48 25 1
48 26 1
48 27 1
48 28 1
48 31 1
48 33 1
48 34 1
48 36 1
48 39 1
48 40 1
48 44 1
48 45 1
49 2 1
49 3 1
49 6 1
49 10 1
49 11 1
49 14 1
49 17 1
49 22 1
49 23 1
49 25 1
49 26 1
49 28 1
49 29 1
49 30 1
49 31 1
49 32 1
49 33 1
49 35 1
49 36 1
49 43 1
49 45 1
49 48 1
50 1 1
50 4 1
50 5 1
50 7 1
50 8 1
50 11 1
50 13 1
50 17 1
50 19 1
50 21 1
50 24 1
50 25 1
50 27 1
50 30 1
50 33 1
50 34 1
50 37 1
50 38 1
50 40 1
50 42 1
50 44 1
50 45 1
50 46 1
50 47 1
50 48 1
50 49 1
51 1 1
51 2 1
51 5 1
51 6 1
51 9 1
51 14 1
51 15 1
51 23 1
51 24 1
51 25 1
51 26 1
51 28 1
51 29 1
51 32 1
51 33 1
51 34 1
51 35 1
51 36 1
51 38 1
51 40 1
51 43 1
51 44 1
51 45 1
51 47 1
51 48 1
52 0 1
52 2 1
52 3 1
52 6 1
52 8 1
52 10 1
52 12 1
52 13 1
52 14 1
52 15 1
52 16 1
52 17 1
52 19 1
52 20 1
52 23 1
52 25 1
52 26 1
52 27 1
52 29 1
52 31 1
52 32 1
52 33 1
52 36 1
52 39 1
52 40 1
52 42 1
52 44 1
52 45 1
52 46 1
52 48 1
52 50 1
52 51 1
53 0 1
53 1 1
53 2 1
53 6 1
53 7 1
53 11 1
53 12 1
53 14 1
53 16 1
53 20 1
53 25 1
53 26 1
53 27 1
53 30 1
53 34 1
53 35 1
53 36 1
53 37 1
53 38 1
53 40 1
53 41 1
53 44 1
53 45 1
53 48 1
53 50 1
53 51 1
53 52 1
54 1 1
54 4 1
54 5 1
54 6 1
54 8 1
54 11 1
54 12 1
54 13 1
54 14 1
54 17 1
54 19 1
54 20 1
54 23 1
54 24 1
54 25 1
54 29 1
54 31 1
54 32 1
54 33 1
54 34 1
54 35 1
54 42 1
54 49 1
54 53 1
55 0 1
55 3 1
55 7 1
55 10 1
55 11 1
55 12 1
55 13 1
55 15 1
55 16 1
55 19 1
55 22 1
55 24 1
55 25 1
55 26 1
55 28 1
55 30 1
55 35 1
55 39 1
55 41 1
55 43 1
55 45 1
55 48 1
55 49 1
55 51 1
55 52 1
55 53 1
55 54 1
56 1 1
56 6 1
56 8 1
56 10 1
56 12 1
56 13 1
56 14 1
56 15 1
56 17 1
56 18 1
56 20 1
56 27 1
56 28 1
56 30 1
56 32 1
56 33 1
56 35 1
56 37 1
56 39 1
56 41 1
56 42 1
56 44 1
56 45 1
56 46 1
56 47 1
56 48 1
56 51 1
56 53 1
56 55 1
57 2 1
57 3 1
57 5 1
57 6 1
57 7 1
57 8 1
57 12 1
57 13 1
57 15 1
57 16 1
57 19 1
57 20 1
57 22 1
57 24 1
57 27 1
57 29 1
57 30 1
57 31 1
57 32 1
57 33 1
57 34 1
57 38 1
57 41 1
57 43 1
57 45 1
57 46 1
57 47 1
57 51 1
57 52 1
57 54 1
57 56 1
58 1 1
58 2 1
58 4 1
58 6 1
58 8 1
58 14 1
58 19 1
58 20 1
58 22 1
58 23 1
58 25 1
58 27 1
58 28 1
58 32 1
58 33 1
58 34 1
58 35 1
58 38 1
58 40 1
58 41 1
58 42 1
58 43 1
58 44 1
58 46 1
58 47 1
58 51 1
58 52 1
58 53 1
58 55 1
58 56 1
59 0 1
59 1 1
59 3 1
59 4 1
59 6 1
59 7 1
59 14 1
59 15 1
59 16 1
59 17 1
59 18 1
59 19 1
59 20 1
59 21 1
59 23 1
59 25 1
59 33 1
59 39 1
59 41 1
59 43 1
59 46 1
59 48 1
59 49 1
59 51 1
59 54 1
59 55 1
60 1 1
60 3 1
60 4 1
60 5 1
60 6 1
60 7 1
60 8 1
60 10 1
60 11 1
60 12 1
60 13 1
60 15 1
60 16 1
60 17 1
60 18 1
60 19 1
60 20 1
60 23 1
60 24 1
60 25 1
60 26 1
60 28 1
60 33 1
60 34 1
60 37 1
60 38 1
60 39 1
60 42 1
60 46 1
60 47 1
60 48 1
60 49 1
60 53 1
60 56 1
60 57 1
61 1 1
61 2 1
61 3 1
61 4 1
61 6 1
61 7 1
61 10 1
61 13 1
61 14 1
61 15 1
61 17 1
61 20 1
61 23 1
61 25 1
61 26 1
61 27 1
61 32 1
61 33 1
61 36 1
61 38 1
61 42 1
61 45 1
61 46 1
61 47 1
61 48 1
61 49 1
61 51 1
61 52 1
61 55 1
61 58 1
61 59 1
61 60 1
62 1 1
62 2 1
62 3 1
62 4 1
62 5 1
62 7 1
62 8 1
62 10 1
62 11 1
62 15 1
62 17 1
62 18 1
62 19 1
62 20 1
62 22 1
62 25 1
62 26 1
62 27 1
62 29 1
62 30 1
62 31 1
62 32 1
62 34 1
62 36 1
62 39 1
62 43 1
62 44 1
62 48 1
62 50 1
62 51 1
62 53 1
62 56 1
62 57 1
62 58 1
62 59 1
63 0 1
63 1 1
63 2 1
63 4 1
63 5 1
63 6 1
63 8 1
63 11 1
63 13 1
63 14 1
63 15 1
63 18 1
63 20 1
63 22 1
63 26 1
63 27 1
63 28 1
63 30 1
63 32 1
63 35 1
63 36 1
63 38 1
63 41 1
63 44 1
63 45 1
63 48 1
63 49 1
63 53 1
63 54 1
63 58 1
63 60 1
64 0 1
64 1 1
64 6 1
64 8 1
64 9 1
64 10 1
64 11 1
64 14 1
64 15 1
64 17 1
64 18 1
64 22 1
64 23 1
64 24 1
64 26 1
64 28 1
64 29 1
64 31 1
64 35 1
64 36 1
64 38 1
64 39 1
64 40 1
64 44 1
64 45 1
64 47 1
64 48 1
64 51 1
64 53 1
64 54 1
64 55 1
64 57 1
64 60 1
65 0 1
65 3 1
65 5 1
65 9 1
65 13 1
65 15 1
65 16 1
65 17 1
65 18 1
65 20 1
65 21 1
65 22 1
65 23 1
65 24 1
65 25 1
65 26 1
65 28 1
65 29 1
65 32 1
65 36 1
65 38 1
65 40 1
65 44 1
65 47 1
65 48 1
65 49 1
65 50 1
65 52 1
65 53 1
65 55 1
65 59 1
65 61 1
65 62 1
65 63 1
66 1 1
66 2 1
66 3 1
66 4 1
66 5 1
66 6 1
66 7 1
66 9 1
66 10 1
66 11 1
66 14 1
66 15 1
66 20 1
66 22 1
66 23 1
66 24 1
66 28 1
66 31 1
66 32 1
66 33 1
66 37 1
66 38 1
66 42 1
66 43 1
66 44 1
66 49 1
66 54 1
66 55 1
66 57 1
66 59 1
66 60 1
66 63 1
67 0 1
67 1 1
67 3 1
67 4 1
67 8 1
67 13 1
67 17 1
67 19 1
67 20 1
67 21 1
67 23 1
67 24 1
67 26 1
67 27 1
67 28 1
67 29 1
67 30 1
67 36 1
67 37 1
67 38 1
67 40 1
67 42 1
67 43 1
67 44 1
67 48 1
67 49 1
67 50 1
67 53 1
67 54 1
67 55 1
67 56 1
67 59 1
67 64 1
67 65 1
67 66 1
68 2 1
68 4 1
68 5 1
68 6 1
68 7 1
68 10 1
68 11 1
68 13 1
68 14 1
68 15 1
68 16 1
68 22 1
68 28 1
68 31 1
68 32 1
68 34 1
68 35 1
68 37 1
68 41 1
68 43 1
68 49 1
68 50 1
68 53 1
68 54 1
68 55 1
68 60 1
68 65 1
69 3 1
69 6 1
69 9 1
69 10 1
69 12 1
69 13 1
69 14 1
69 19 1
69 20 1
69 21 1
69 22 1
69 24 1
69 25 1
69 26 1
69 28 1
69 29 1
69 30 1
69 31 1
69 32 1
69 35 1
69 37 1
69 38 1
69 42 1
69 45 1
69 47 1
69 48 1
69 49 1
69 50 1
69 53 1
69 54 1
69 55 1
69 56 1
69 58 1
69 60 1
69 63 1
69 64 1
69 65 1
69 66 1
69 67 1
69 68 1
